002 002 004 006 005 009 005 003 007 005 003 004 005 004 006 004 013 013 009 005 006 012 017 014 012 006 012 014 016 007 005
002 003 003 004 003 006 006 003 003 006 006 005 004 003 005 006 007 011 009 006 006 006 012 010 017 007 010 010 016 008 007
002 001 002 003 003 004 003 003 003 003 004 004 004 003 004 005 005 003 007 014 005 005 016 009 015 009 008 008 018 012 007
001 002 002 002 002 002 002 002 002 003 004 003 003 003 002 004 006 003 004 006 006 009 010 017 010 005 005 006 014 016 011
001 000 001 002 002 001 002 003 001 002 001 002 002 003 002 002 004 003 003 004 005 005 008 017 013 010 005 004 010 024 013
001 001 001 001 001 001 001 002 003 002 002 002 003 002 003 003 004 005 002 004 003 006 006 013 011 013 008 007 020 022 014
000 001 001 001 001 001 001 002 002 001 002 002 003 003 003 003 004 005 002 005 002 002 005 011 012 014 012 011 030 022 011
000 000 000 000 000 000 001 001 002 002 002 002 002 002 003 002 003 005 004 004 002 003 007 009 014 011 005 019 028 014 012
000 000 000 000 000 000 001 001 002 002 001 002 002 002 004 004 003 004 004 002 001 004 009 012 016 006 012 014 014 013 012
000 000 000 000 000 000 001 003 002 002 001 001 001 001 003 004 004 004 002 001 001 003 007 009 017 014 007 011 010 007 016
000 000 000 000 000 000 001 002 001 001 002 001 002 002 002 004 004 001 001 001 002 004 010 009 010 015 009 008 008 013 022
000 000 000 000 000 000 000 002 002 003 002 002 002 003 003 004 003 002 002 002 003 005 019 013 016 025 013 011 007 030 035
000 000 000 000 001 000 000 001 002 005 003 003 005 014 009 006 003 002 002 001 002 001 009 035 023 044 025 025 031 040 026
000 000 000 001 001 001 001 002 003 004 005 003 004 013 011 007 004 003 003 002 004 004 013 022 039 052 044 048 069 044 017
000 002 000 001 001 001 001 002 003 007 006 006 012 020 011 007 004 003 004 005 005 005 017 025 043 060 045 058 078 050 020
000 004 001 002 002 006 005 003 004 007 006 013 012 024 011 006 004 004 006 008 008 013 029 034 046 061 047 060 054 039 016
001 004 003 003 005 006 006 004 004 004 010 017 025 031 019 012 007 005 009 010 011 013 031 035 040 058 048 040 029 023 012
001 003 003 002 003 005 006 006 005 003 006 007 028 046 027 028 012 006 009 009 022 021 021 039 025 035 030 035 019 012 006
003 001 000 001 002 004 006 004 006 002 005 009 039 052 023 027 017 013 010 013 031 023 033 035 018 017 013 022 013 009 007
001 000 001 001 001 002 005 005 003 002 003 011 053 055 022 022 022 031 019 024 040 042 043 038 027 031 056 048 029 020 013
003 003 006 004 001 003 009 007 003 003 005 028 062 038 034 036 035 040 036 042 050 071 050 040 040 039 056 048 029 020 013
004 007 013 005 008 013 011 004 003 004 023 052 072 056 057 064 054 039 048 062 056 089 064 048 046 047 055 053 035 026 022
004 009 017 006 013 011 011 003 002 005 041 061 072 118 091 061 047 047 043 060 050 080 098 075 075 077 080 064 062 057 051
009 006 022 012 013 006 005 002 001 005 039 134 146 114 089 061 062 061 036 047 047 065 094 114 098 114 083 080 114 098 078
010 005 012 010 004 002 001 001 001 007 044 082 146 078 069 048 077 048 025 025 052 048 055 140 098 129 058 092 146 100 085
002 003 004 003 003 002 001 001 001 007 066 082 123 098 090 053 052 035 013 015 044 033 040 146 109 128 096 092 134 134 081
002 002 002 002 002 001 000 001 001 006 030 068 100 109 089 050 028 021 007 009 010 019 021 052 061 092 082 082 118 096 083
002 001 001 001 000 000 000 001 001 005 016 033 072 089 082 044 015 006 003 003 005 012 017 029 045 066 096 092 087 087 094
001 001 000 001 000 000 000 001 002 004 007 015 029 054 061 019 025 006 003 002 002 008 015 021 025 066 054 123 069 080 091
001 001 000 000 000 000 000 001 002 005 004 008 018 075 042 026 025 007 002 001 001 006 007 013 018 023 035 077 071 087 078
001 001 001 001 001 000 001 002 001 003 002 003 006 022 017 017 019 006 001 001 001 001 004 006 013 016 017 048 089 129 092
001 001 000 001 001 000 001 001 001 001 001 002 003 003 006 012 008 002 001 000 000 001 002 004 016 013 013 025 100 123 109
001 001 000 000 000 000 000 001 001 002 001 001 002 001 004 007 004 001 001 000 001 001 000 006 033 028 048 050 121 123 111
003 001 001 000 000 000 000 000 001 001 001 001 001 001 003 002 002 001 001 001 001 001 001 004 040 064 089 066 107 082 105
002 001 001 001 000 000 000 000 001 001 001 002 002 001 002 001 001 001 002 005 009 003 002 004 021 062 071 072 087 056 082
001 002 001 001 001 000 000 000 000 001 001 002 002 002 002 002 001 001 002 003 011 016 005 004 021 044 044 061 075 048 054
001 002 002 001 001 000 000 000 000 000 000 001 002 002 002 001 000 001 005 008 030 029 011 009 020 024 026 037 039 034 020
001 001 001 001 000 000 000 000 000 000 000 001 000 001 003 003 001 001 012 012 028 027 013 010 005 008 020 025 024 019 015
001 001 001 001 000 000 000 000 000 000 000 000 000 001 002 004 001 003 018 017 021 026 016 014 007 006 012 010 010 012 010
002 001 000 000 000 000 000 000 000 000 000 000 000 001 001 003 001 002 008 010 018 010 012 011 006 008 007 007 008 007 006
001 001 000 000 000 000 000 000 000 000 000 000 000 000 001 002 002 001 003 005 009 007 006 010 010 005 005 006 006 003 002
002 002 001 000 000 000 000 000 000 000 000 000 000 000 001 001 001 001 001 003 006 006 004 009 009 005 003 003 004 005 002
002 003 002 001 000 000 000 000 000 000 000 000 000 000 000 001 001 001 000 003 005 002 003 011 006 004 002 003 005 007 003
003 002 001 001 000 000 000 000 000 000 000 000 000 000 001 001 001 001 001 001 002 001 001 002 004 003 002 002 004 005 002
001 001 000 000 000 000 000 000 000 000 000 000 000 000 002 003 003 001 001 001 001 000 000 001 002 002 002 002 003 005 001
000 000 000 000 000 000 000 000 000 000 000 000 000 000 002 002 002 001 001 002 004 001 000 000 001 002 002 002 002 001 001
000 000 000 000 000 000 000 000 000 000 000 000 000 000 000 001 001 001 002 004 003 002 000 000 000 001 001 001 001 001 001
000 000 000 000 000 000 000 000 000 000 000 000 000 000 000 000 001 006 005 005 003 002 000 000 000 000 001 001 001 000 000
001 000 000 000 000 000 000 000 000 000 000 000 000 000 000 001 004 011 016 007 008 007 002 000 000 000 001 001 001 000 000
001 001 001 001 000 000 000 000 000 000 000 000 000 000 000 000 007 025 028 042 022 008 002 001 001 001 001 001 000 000 000
000 000 000 000 000 000 000 000 000 000 000 000 000 000 000 001 009 024 053 045 017 005 003 001 003 002 001 001 000 000 000
000 000 000 000 001 000 000 000 000 -99 -99 -99 000 000 000 002 006 024 066 034 034 012 002 001 001 002 001 001 000 000 -99
002 000 000 000 001 001 000 000 000 -99 000 000 000 000 000 002 006 022 022 031 075 031 002 001 001 004 002 000 000 000 -99
009 002 001 002 001 001 000 000 000 000 000 000 000 000 000 001 005 006 014 037 057 023 003 002 005 005 001 000 000 000 -99
006 003 005 005 003 003 001 000 000 000 000 000 000 000 002 006 003 008 010 012 022 013 013 003 003 002 001 000 000 -99 -99
